GLPSOL--GLPK LP/MIP Solver 5.0
Parameter(s) specified in the command line:
 --lp ../modeles/15_474.lp --log 15_474.log
Reading problem data from '../modeles/15_474.lp'...
7171 rows, 14250 columns, 49815 non-zeros
7110 integer variables, all of which are binary
21442 lines were read
GLPK Integer Optimizer 5.0
7171 rows, 14250 columns, 49815 non-zeros
7110 integer variables, all of which are binary
Preprocessing...
7050 constraint coefficient(s) were reduced
7171 rows, 14235 columns, 49800 non-zeros
7110 integer variables, all of which are binary
Scaling...
 A: min|aij| =  7.121e-05  max|aij| =  4.000e+00  ratio =  5.617e+04
GM: min|aij| =  6.496e-02  max|aij| =  1.539e+01  ratio =  2.370e+02
EQ: min|aij| =  4.219e-03  max|aij| =  1.000e+00  ratio =  2.370e+02
2N: min|aij| =  3.906e-03  max|aij| =  1.773e+00  ratio =  4.538e+02
Constructing initial basis...
Size of triangular part is 7171
Solving LP relaxation...
GLPK Simplex Optimizer 5.0
7171 rows, 14235 columns, 49800 non-zeros
      0: obj =   3.000000000e+01 inf =   7.450e+01 (31)
Perturbing LP to avoid stalling [199]...
    404: obj =   3.119697685e-01 inf =   0.000e+00 (0)
Removing LP perturbation [1296]...
*  1296: obj =  -3.872483918e+00 inf =   2.159e-14 (0) 1
OPTIMAL LP SOLUTION FOUND
Integer optimization begins...
Long-step dual simplex will be used
+  1296: mip =     not found yet >=              -inf        (1; 0)
+  1528: mip =     not found yet >=  -3.872483918e+00        (232; 0)
+  1714: mip =     not found yet >=  -3.872483918e+00        (416; 0)
+  1905: >>>>>  -3.872483918e+00 >=  -3.872483918e+00   0.0% (605; 0)
+  1905: mip =  -3.872483918e+00 >=     tree is empty   0.0% (0; 1209)
INTEGER OPTIMAL SOLUTION FOUND
Time used:   14.2 secs
Memory used: 20.9 Mb (21906283 bytes)
